param n := 60;
param c := 1000;
param : V : p w :=
   0	 495	 485
   1	 266	 256
   2	 269	 259
   3	 501	 491
   4	 261	 251
   5	 268	 258
   6	 363	 353
   7	 322	 312
   8	 345	 335
   9	 508	 498
  10	 260	 250
  11	 262	 252
  12	 371	 361
  13	 303	 293
  14	 356	 346
  15	 388	 378
  16	 262	 252
  17	 380	 370
  18	 461	 451
  19	 266	 256
  20	 303	 293
  21	 449	 439
  22	 279	 269
  23	 302	 292
  24	 463	 453
  25	 273	 263
  26	 294	 284
  27	 408	 398
  28	 269	 259
  29	 353	 343
  30	 401	 391
  31	 265	 255
  32	 364	 354
  33	 472	 462
  34	 262	 252
  35	 296	 286
  36	 373	 363
  37	 264	 254
  38	 393	 383
  39	 391	 381
  40	 288	 278
  41	 351	 341
  42	 464	 454
  43	 261	 251
  44	 305	 295
  45	 366	 356
  46	 293	 283
  47	 371	 361
  48	 463	 453
  49	 282	 272
  50	 285	 275
  51	 367	 357
  52	 285	 275
  53	 378	 368
  54	 478	 468
  55	 260	 250
  56	 292	 282
  57	 362	 352
  58	 290	 280
  59	 378	 368
;

set E :=
   0	   1
   0	   4
   0	   6
   0	  15
   0	  16
   0	  23
   0	  26
   0	  30
   0	  43
   0	  49
   1	   3
   1	   7
   1	   8
   1	  10
   1	  14
   1	  15
   1	  33
   1	  36
   1	  46
   1	  53
   1	  55
   1	  56
   2	   3
   2	   5
   2	   7
   2	  11
   2	  14
   2	  15
   2	  17
   2	  24
   2	  26
   2	  31
   2	  32
   2	  42
   2	  44
   2	  50
   2	  51
   2	  53
   3	   7
   3	   8
   3	  15
   3	  39
   3	  40
   3	  43
   3	  51
   3	  54
   3	  55
   4	   8
   4	  24
   4	  26
   4	  27
   4	  36
   4	  52
   4	  53
   4	  54
   4	  55
   5	  11
   5	  16
   5	  17
   5	  19
   5	  25
   5	  26
   5	  29
   5	  32
   5	  35
   5	  38
   5	  43
   5	  46
   5	  54
   5	  56
   5	  57
   5	  59
   6	   7
   6	  14
   6	  25
   6	  34
   6	  38
   6	  51
   7	   8
   7	   9
   7	  11
   7	  12
   7	  17
   7	  21
   7	  29
   7	  31
   7	  40
   7	  41
   7	  45
   7	  57
   8	   9
   8	  10
   8	  12
   8	  16
   8	  19
   8	  22
   8	  32
   8	  36
   8	  48
   8	  49
   8	  51
   8	  52
   9	  10
   9	  13
   9	  14
   9	  15
   9	  19
   9	  24
   9	  35
   9	  38
   9	  40
   9	  51
   9	  55
  10	  22
  10	  35
  10	  36
  10	  44
  10	  46
  10	  59
  11	  14
  11	  18
  11	  22
  11	  24
  11	  25
  11	  31
  11	  35
  11	  40
  11	  43
  11	  49
  11	  52
  11	  56
  11	  57
  11	  58
  12	  17
  12	  21
  12	  35
  12	  40
  12	  41
  12	  49
  12	  56
  12	  58
  13	  16
  13	  17
  13	  25
  13	  29
  13	  39
  13	  44
  13	  45
  13	  46
  13	  48
  13	  53
  13	  54
  14	  50
  14	  52
  14	  54
  14	  56
  15	  16
  15	  19
  15	  20
  15	  22
  15	  30
  15	  31
  15	  34
  15	  36
  15	  41
  15	  45
  15	  55
  15	  57
  16	  26
  16	  38
  16	  44
  16	  47
  16	  49
  16	  51
  16	  52
  16	  56
  16	  58
  16	  59
  17	  18
  17	  27
  17	  32
  17	  35
  17	  38
  17	  44
  17	  46
  17	  47
  17	  51
  18	  20
  18	  39
  18	  42
  18	  45
  18	  58
  19	  28
  19	  32
  19	  36
  19	  41
  19	  45
  19	  52
  19	  55
  20	  23
  20	  24
  20	  35
  20	  41
  20	  49
  20	  58
  20	  59
  21	  24
  21	  25
  21	  28
  21	  30
  21	  32
  21	  37
  21	  38
  21	  47
  21	  51
  22	  33
  22	  35
  22	  39
  22	  40
  22	  44
  22	  49
  22	  52
  23	  24
  23	  27
  23	  29
  23	  31
  23	  32
  23	  50
  23	  51
  23	  53
  23	  54
  23	  55
  24	  30
  24	  34
  24	  37
  24	  41
  24	  42
  24	  43
  24	  44
  24	  47
  24	  51
  24	  54
  25	  32
  25	  36
  25	  39
  25	  40
  25	  51
  25	  54
  26	  28
  26	  32
  26	  33
  26	  42
  26	  45
  26	  52
  26	  54
  27	  31
  27	  32
  27	  44
  27	  55
  28	  33
  28	  35
  28	  39
  28	  41
  28	  45
  29	  41
  29	  47
  29	  52
  29	  53
  29	  54
  29	  56
  30	  37
  30	  40
  30	  42
  30	  51
  30	  52
  30	  53
  30	  55
  30	  57
  31	  43
  31	  49
  31	  56
  31	  58
  32	  38
  32	  40
  32	  42
  32	  47
  32	  49
  32	  52
  32	  55
  32	  57
  33	  43
  33	  45
  33	  48
  33	  51
  33	  52
  33	  55
  34	  40
  34	  51
  34	  52
  34	  59
  35	  42
  35	  43
  35	  45
  35	  47
  35	  49
  35	  50
  35	  54
  36	  38
  36	  47
  36	  51
  36	  57
  37	  38
  37	  46
  37	  48
  37	  50
  37	  53
  38	  42
  38	  51
  38	  53
  38	  55
  38	  58
  39	  43
  39	  44
  39	  46
  39	  47
  39	  53
  40	  47
  40	  48
  40	  49
  40	  52
  41	  43
  41	  47
  42	  54
  42	  58
  43	  49
  44	  46
  44	  49
  45	  46
  45	  54
  45	  56
  46	  54
  47	  53
  47	  54
  47	  58
  48	  49
  48	  58
  49	  50
  49	  54
  49	  55
  49	  57
  49	  58
  51	  59
  52	  54
  52	  56
  53	  54
  53	  56
  53	  57
  53	  58
  55	  58
  56	  58
;
